# Strimko Set #070
param n := 5;

# represent the different streams with integer 1..n
param streams: 1 2 3 4 5 :=
   1      1 2 3 3 3 
   2      2 1 1 3 1 
   3      2 2 3 1 4 
   4      5 2 5 4 4 
   5      5 5 5 4 4 

;

param num_placed := 4;
param placed: 1 2 3 :=
  1   1 1 1 
  2   2 5 4 
  3   4 1 2 
  4   5 4 5

;
